benchmarks_CP/INST_64x64/40/inst64x64_40_55.dzn
S=8;
start=[|
-1,	-1,	-1,	-1,	15,	-1,	-1,	3,	-1,	40,	-1,	-1,	-1,	-1,	13,	57,	-1,	26,	14,	31,	52,	-1,	-1,	-1,	-1,	-1,	-1,	48,	51,	-1,	-1,	-1,	-1,	-1,	20,	-1,	22,	56,	55,	41,	43,	-1,	-1,	64,	-1,	-1,	-1,	53,	24,	-1,	-1,	-1,	-1,	7,	28,	10,	-1,	-1,	-1,	-1,	-1,	-1,	29,	-1|
28,	-1,	31,	56,	-1,	39,	-1,	-1,	-1,	46,	-1,	-1,	-1,	-1,	52,	-1,	55,	-1,	-1,	-1,	-1,	-1,	-1,	-1,	59,	10,	-1,	-1,	-1,	-1,	16,	-1,	21,	-1,	7,	23,	32,	19,	-1,	-1,	18,	8,	-1,	-1,	57,	-1,	-1,	4,	-1,	-1,	-1,	-1,	-1,	17,	-1,	-1,	-1,	-1,	24,	48,	13,	-1,	-1,	-1|
6,	38,	57,	-1,	-1,	55,	12,	-1,	-1,	17,	-1,	-1,	-1,	28,	25,	-1,	10,	-1,	20,	11,	62,	-1,	50,	-1,	-1,	-1,	4,	-1,	-1,	-1,	-1,	-1,	-1,	43,	-1,	-1,	26,	-1,	-1,	-1,	9,	58,	33,	-1,	21,	30,	52,	24,	-1,	-1,	-1,	-1,	-1,	-1,	46,	-1,	22,	7,	-1,	-1,	-1,	-1,	34,	-1|
-1,	-1,	-1,	-1,	8,	-1,	-1,	4,	-1,	-1,	-1,	-1,	-1,	60,	-1,	-1,	-1,	48,	-1,	45,	64,	13,	32,	-1,	-1,	26,	46,	-1,	15,	-1,	-1,	50,	5,	-1,	-1,	-1,	37,	18,	-1,	-1,	-1,	-1,	-1,	29,	36,	-1,	-1,	-1,	49,	25,	51,	-1,	-1,	27,	-1,	39,	-1,	-1,	-1,	-1,	57,	58,	-1,	-1|
47,	-1,	-1,	-1,	-1,	54,	61,	17,	50,	8,	-1,	-1,	32,	-1,	-1,	48,	63,	37,	-1,	-1,	34,	-1,	28,	51,	-1,	22,	6,	-1,	-1,	-1,	-1,	45,	64,	-1,	24,	13,	-1,	11,	52,	14,	60,	-1,	-1,	-1,	55,	-1,	-1,	-1,	29,	-1,	-1,	57,	-1,	42,	-1,	-1,	-1,	-1,	-1,	-1,	-1,	-1,	43,	-1|
18,	5,	-1,	-1,	50,	7,	-1,	-1,	38,	-1,	-1,	-1,	-1,	-1,	-1,	59,	-1,	-1,	-1,	-1,	-1,	16,	53,	-1,	-1,	21,	-1,	3,	-1,	-1,	-1,	-1,	27,	28,	-1,	39,	-1,	-1,	-1,	12,	2,	-1,	-1,	-1,	56,	10,	32,	-1,	-1,	-1,	-1,	55,	-1,	62,	-1,	22,	4,	52,	33,	46,	-1,	-1,	64,	-1|
-1,	-1,	-1,	-1,	-1,	-1,	-1,	-1,	30,	-1,	-1,	-1,	31,	-1,	-1,	-1,	47,	5,	-1,	-1,	4,	38,	-1,	17,	25,	-1,	-1,	57,	-1,	28,	11,	-1,	-1,	49,	-1,	-1,	15,	-1,	-1,	-1,	-1,	-1,	44,	-1,	-1,	27,	-1,	-1,	52,	-1,	-1,	20,	13,	61,	-1,	-1,	63,	-1,	37,	-1,	-1,	-1,	-1,	-1|
-1,	29,	41,	-1,	-1,	-1,	45,	-1,	22,	43,	-1,	-1,	-1,	-1,	-1,	44,	39,	56,	-1,	24,	-1,	-1,	2,	-1,	-1,	27,	-1,	-1,	52,	7,	60,	-1,	33,	57,	4,	-1,	36,	-1,	-1,	25,	-1,	-1,	17,	20,	14,	-1,	-1,	48,	63,	-1,	15,	21,	8,	38,	-1,	40,	-1,	6,	-1,	62,	-1,	-1,	-1,	-1|
24,	-1,	-1,	-1,	-1,	20,	-1,	-1,	-1,	34,	-1,	21,	-1,	-1,	-1,	49,	-1,	-1,	55,	60,	-1,	5,	-1,	-1,	-1,	-1,	-1,	-1,	-1,	-1,	-1,	-1,	-1,	-1,	-1,	-1,	61,	-1,	-1,	56,	47,	12,	-1,	28,	15,	-1,	-1,	-1,	59,	3,	2,	-1,	40,	13,	-1,	-1,	-1,	-1,	18,	-1,	38,	6,	58,	22|
40,	39,	-1,	43,	45,	-1,	4,	58,	-1,	-1,	-1,	56,	-1,	-1,	-1,	53,	15,	-1,	-1,	2,	16,	-1,	-1,	-1,	-1,	-1,	-1,	-1,	-1,	-1,	-1,	-1,	-1,	-1,	-1,	-1,	51,	-1,	-1,	10,	6,	62,	27,	-1,	22,	-1,	-1,	13,	12,	-1,	-1,	-1,	-1,	28,	29,	64,	36,	-1,	14,	33,	32,	-1,	31,	-1|
-1,	-1,	33,	36,	-1,	1,	-1,	37,	15,	28,	-1,	-1,	-1,	6,	-1,	-1,	7,	22,	-1,	53,	-1,	-1,	-1,	44,	-1,	-1,	-1,	-1,	-1,	-1,	-1,	-1,	-1,	64,	-1,	26,	25,	-1,	-1,	49,	50,	24,	10,	-1,	-1,	-1,	-1,	-1,	-1,	-1,	-1,	38,	47,	30,	17,	42,	-1,	8,	-1,	-1,	41,	-1,	-1,	57|
19,	-1,	-1,	-1,	-1,	49,	-1,	-1,	5,	9,	-1,	-1,	-1,	-1,	-1,	-1,	-1,	64,	46,	-1,	-1,	-1,	-1,	-1,	27,	13,	-1,	-1,	59,	18,	22,	-1,	-1,	-1,	-1,	7,	3,	48,	-1,	37,	-1,	-1,	55,	33,	17,	-1,	-1,	-1,	-1,	16,	-1,	62,	41,	1,	-1,	32,	44,	28,	-1,	-1,	10,	-1,	-1,	-1|
-1,	44,	17,	-1,	-1,	-1,	-1,	-1,	25,	-1,	-1,	-1,	61,	-1,	-1,	-1,	-1,	50,	1,	18,	-1,	-1,	-1,	-1,	30,	-1,	15,	54,	64,	12,	-1,	38,	6,	-1,	-1,	-1,	29,	-1,	-1,	-1,	-1,	-1,	48,	-1,	8,	43,	-1,	-1,	-1,	-1,	-1,	26,	-1,	-1,	19,	-1,	-1,	40,	-1,	45,	39,	-1,	-1,	52|
-1,	-1,	-1,	-1,	64,	-1,	-1,	18,	52,	31,	-1,	-1,	62,	-1,	63,	-1,	-1,	-1,	-1,	54,	-1,	-1,	30,	23,	24,	-1,	21,	-1,	-1,	-1,	-1,	10,	-1,	20,	-1,	-1,	58,	38,	-1,	-1,	-1,	-1,	-1,	-1,	-1,	36,	40,	-1,	34,	-1,	-1,	-1,	-1,	-1,	-1,	-1,	13,	-1,	-1,	-1,	-1,	7,	-1,	16|
14,	-1,	-1,	62,	-1,	-1,	-1,	-1,	-1,	-1,	-1,	11,	-1,	45,	-1,	64,	4,	21,	-1,	28,	-1,	-1,	-1,	13,	20,	-1,	-1,	-1,	-1,	63,	-1,	-1,	12,	-1,	27,	-1,	-1,	-1,	40,	-1,	19,	-1,	-1,	-1,	-1,	25,	-1,	34,	53,	39,	-1,	43,	24,	8,	-1,	-1,	29,	-1,	17,	23,	-1,	-1,	61,	-1|
23,	-1,	-1,	38,	28,	52,	-1,	59,	17,	-1,	20,	-1,	-1,	36,	-1,	-1,	-1,	10,	-1,	-1,	-1,	-1,	14,	35,	43,	-1,	56,	58,	-1,	-1,	42,	-1,	-1,	-1,	-1,	44,	-1,	-1,	63,	57,	-1,	39,	9,	-1,	-1,	-1,	60,	-1,	-1,	-1,	55,	-1,	-1,	-1,	45,	-1,	-1,	64,	-1,	-1,	34,	25,	-1,	-1|
8,	-1,	-1,	63,	-1,	-1,	-1,	15,	-1,	51,	-1,	-1,	64,	-1,	-1,	-1,	-1,	-1,	-1,	17,	-1,	-1,	-1,	-1,	1,	-1,	22,	16,	13,	-1,	-1,	-1,	-1,	-1,	30,	-1,	-1,	-1,	-1,	-1,	-1,	19,	-1,	-1,	-1,	-1,	24,	42,	-1,	-1,	7,	-1,	45,	48,	20,	57,	-1,	33,	28,	-1,	35,	-1,	-1,	-1|
-1,	24,	-1,	17,	-1,	-1,	28,	-1,	-1,	-1,	-1,	-1,	3,	57,	-1,	42,	-1,	34,	-1,	19,	26,	-1,	-1,	-1,	-1,	55,	-1,	-1,	27,	8,	-1,	56,	-1,	-1,	52,	58,	41,	-1,	43,	50,	-1,	-1,	-1,	54,	16,	-1,	35,	29,	-1,	-1,	46,	-1,	36,	6,	-1,	-1,	45,	-1,	-1,	20,	-1,	-1,	48,	-1|
-1,	20,	-1,	-1,	18,	46,	-1,	-1,	-1,	56,	-1,	29,	-1,	15,	-1,	-1,	-1,	-1,	63,	-1,	24,	-1,	-1,	-1,	52,	-1,	-1,	36,	-1,	-1,	-1,	-1,	-1,	-1,	-1,	64,	54,	9,	-1,	7,	-1,	-1,	-1,	-1,	-1,	-1,	4,	21,	35,	41,	-1,	13,	62,	14,	23,	16,	31,	-1,	-1,	-1,	50,	-1,	-1,	40|
-1,	7,	23,	-1,	-1,	-1,	36,	-1,	-1,	-1,	-1,	61,	-1,	-1,	48,	-1,	-1,	-1,	-1,	-1,	-1,	-1,	-1,	52,	-1,	15,	25,	-1,	3,	-1,	-1,	47,	42,	-1,	-1,	63,	28,	-1,	-1,	19,	62,	-1,	-1,	22,	13,	-1,	17,	-1,	-1,	51,	49,	-1,	43,	-1,	-1,	-1,	-1,	57,	-1,	55,	1,	-1,	-1,	-1|
-1,	-1,	-1,	44,	-1,	-1,	-1,	16,	7,	-1,	41,	-1,	-1,	-1,	-1,	-1,	25,	-1,	50,	-1,	36,	48,	-1,	12,	-1,	34,	-1,	-1,	28,	21,	-1,	-1,	32,	27,	-1,	-1,	46,	-1,	-1,	-1,	30,	-1,	-1,	-1,	-1,	-1,	38,	-1,	26,	-1,	-1,	9,	29,	-1,	-1,	24,	47,	4,	49,	14,	-1,	-1,	-1,	18|
-1,	10,	13,	-1,	-1,	-1,	50,	21,	-1,	-1,	-1,	-1,	-1,	-1,	-1,	36,	-1,	-1,	-1,	-1,	-1,	-1,	16,	49,	-1,	-1,	19,	-1,	4,	-1,	-1,	-1,	-1,	-1,	-1,	-1,	-1,	-1,	-1,	55,	-1,	-1,	57,	52,	-1,	-1,	-1,	15,	-1,	-1,	-1,	39,	-1,	-1,	5,	-1,	-1,	42,	7,	-1,	-1,	-1,	-1,	24|
9,	-1,	40,	39,	-1,	14,	56,	51,	20,	-1,	11,	-1,	-1,	-1,	-1,	-1,	42,	-1,	-1,	62,	13,	-1,	59,	-1,	26,	48,	-1,	61,	-1,	-1,	-1,	49,	-1,	12,	-1,	-1,	53,	-1,	-1,	-1,	-1,	-1,	-1,	-1,	7,	6,	-1,	5,	-1,	1,	32,	63,	55,	-1,	-1,	-1,	16,	-1,	43,	-1,	-1,	-1,	-1,	-1|
-1,	-1,	-1,	32,	61,	-1,	-1,	-1,	16,	-1,	-1,	62,	-1,	-1,	-1,	-1,	57,	-1,	-1,	-1,	-1,	-1,	18,	-1,	40,	-1,	-1,	59,	-1,	6,	-1,	54,	-1,	13,	51,	4,	20,	-1,	-1,	34,	-1,	-1,	-1,	14,	-1,	-1,	50,	64,	-1,	56,	44,	-1,	-1,	52,	31,	17,	-1,	-1,	22,	-1,	-1,	27,	-1,	63|
17,	50,	-1,	10,	39,	-1,	-1,	-1,	-1,	-1,	-1,	47,	1,	-1,	-1,	8,	-1,	-1,	-1,	-1,	-1,	-1,	-1,	41,	38,	54,	24,	27,	6,	3,	7,	-1,	-1,	-1,	15,	-1,	-1,	60,	35,	-1,	29,	-1,	-1,	26,	-1,	-1,	16,	-1,	31,	-1,	-1,	59,	-1,	-1,	43,	49,	61,	45,	63,	13,	21,	-1,	23,	-1|
-1,	14,	18,	33,	-1,	60,	-1,	-1,	35,	49,	-1,	25,	-1,	-1,	54,	-1,	-1,	-1,	-1,	8,	48,	11,	23,	37,	-1,	16,	-1,	-1,	-1,	-1,	-1,	-1,	4,	-1,	61,	-1,	50,	2,	-1,	-1,	63,	-1,	-1,	-1,	-1,	45,	-1,	22,	-1,	6,	58,	-1,	-1,	36,	-1,	-1,	-1,	-1,	39,	-1,	-1,	-1,	47,	10|
-1,	12,	16,	-1,	-1,	-1,	-1,	7,	-1,	-1,	-1,	-1,	13,	18,	-1,	-1,	28,	-1,	-1,	-1,	-1,	-1,	34,	-1,	-1,	-1,	20,	22,	-1,	-1,	14,	-1,	11,	-1,	-1,	-1,	31,	-1,	-1,	38,	-1,	-1,	-1,	27,	-1,	47,	-1,	-1,	1,	-1,	-1,	30,	-1,	-1,	-1,	44,	-1,	2,	-1,	29,	-1,	-1,	-1,	-1|
-1,	6,	-1,	-1,	-1,	64,	-1,	-1,	42,	-1,	34,	-1,	41,	-1,	-1,	-1,	-1,	38,	-1,	21,	29,	-1,	13,	30,	-1,	49,	-1,	-1,	-1,	-1,	23,	-1,	-1,	-1,	-1,	55,	-1,	8,	-1,	-1,	-1,	-1,	-1,	62,	54,	-1,	5,	-1,	14,	-1,	24,	-1,	52,	-1,	-1,	-1,	-1,	50,	-1,	19,	-1,	-1,	33,	28|
-1,	-1,	-1,	59,	-1,	-1,	13,	-1,	29,	48,	-1,	38,	-1,	-1,	-1,	-1,	-1,	61,	-1,	-1,	-1,	47,	15,	-1,	-1,	-1,	-1,	-1,	-1,	-1,	-1,	-1,	-1,	-1,	12,	21,	10,	-1,	18,	3,	-1,	4,	-1,	-1,	53,	-1,	-1,	-1,	64,	-1,	54,	-1,	-1,	-1,	42,	25,	-1,	-1,	20,	-1,	31,	43,	24,	11|
-1,	-1,	-1,	-1,	-1,	15,	-1,	-1,	36,	-1,	32,	-1,	-1,	-1,	10,	-1,	14,	-1,	-1,	-1,	-1,	62,	24,	-1,	-1,	18,	-1,	52,	-1,	11,	59,	-1,	-1,	56,	40,	49,	64,	-1,	25,	27,	-1,	6,	-1,	-1,	-1,	-1,	-1,	-1,	-1,	-1,	3,	-1,	-1,	-1,	41,	-1,	34,	37,	-1,	-1,	48,	17,	-1,	44|
-1,	-1,	42,	37,	-1,	58,	23,	-1,	-1,	44,	5,	26,	-1,	3,	-1,	-1,	-1,	6,	45,	-1,	50,	-1,	-1,	-1,	-1,	-1,	-1,	-1,	-1,	-1,	-1,	-1,	-1,	-1,	-1,	17,	-1,	-1,	-1,	63,	24,	-1,	-1,	-1,	-1,	8,	-1,	31,	-1,	27,	48,	-1,	-1,	-1,	-1,	7,	-1,	-1,	40,	25,	18,	-1,	-1,	35|
-1,	47,	-1,	-1,	46,	-1,	51,	22,	4,	52,	-1,	20,	-1,	-1,	-1,	50,	-1,	-1,	57,	-1,	-1,	-1,	-1,	63,	-1,	45,	-1,	-1,	62,	-1,	25,	-1,	-1,	48,	37,	-1,	59,	-1,	-1,	-1,	10,	-1,	56,	42,	2,	-1,	64,	-1,	32,	-1,	18,	-1,	-1,	-1,	-1,	-1,	-1,	-1,	41,	58,	14,	-1,	5,	-1|
-1,	45,	-1,	-1,	37,	-1,	43,	-1,	-1,	64,	-1,	40,	44,	-1,	58,	-1,	-1,	-1,	-1,	38,	-1,	-1,	-1,	2,	15,	-1,	12,	49,	-1,	-1,	-1,	-1,	-1,	-1,	17,	-1,	62,	-1,	-1,	-1,	-1,	-1,	21,	35,	-1,	16,	-1,	-1,	51,	-1,	10,	-1,	-1,	-1,	-1,	-1,	32,	-1,	55,	8,	-1,	-1,	-1,	36|
33,	-1,	1,	-1,	-1,	16,	-1,	19,	-1,	-1,	-1,	-1,	-1,	30,	-1,	35,	-1,	-1,	48,	-1,	-1,	28,	-1,	-1,	-1,	-1,	51,	37,	-1,	36,	20,	22,	41,	25,	44,	-1,	45,	-1,	-1,	11,	-1,	-1,	38,	-1,	-1,	-1,	-1,	-1,	56,	64,	-1,	18,	27,	-1,	-1,	4,	6,	-1,	-1,	21,	-1,	-1,	-1,	13|
-1,	-1,	-1,	-1,	-1,	-1,	26,	61,	-1,	-1,	-1,	-1,	-1,	2,	-1,	-1,	-1,	-1,	10,	-1,	45,	-1,	-1,	-1,	32,	-1,	59,	-1,	-1,	-1,	56,	-1,	-1,	-1,	43,	5,	7,	-1,	-1,	-1,	-1,	-1,	50,	57,	-1,	-1,	-1,	-1,	25,	-1,	-1,	-1,	-1,	19,	-1,	-1,	28,	3,	-1,	34,	-1,	-1,	18,	-1|
-1,	8,	-1,	-1,	-1,	-1,	-1,	-1,	-1,	15,	22,	32,	-1,	-1,	-1,	-1,	-1,	-1,	-1,	-1,	-1,	-1,	5,	-1,	-1,	4,	-1,	-1,	-1,	38,	24,	3,	-1,	-1,	42,	61,	-1,	-1,	-1,	-1,	-1,	-1,	49,	23,	-1,	60,	43,	-1,	9,	-1,	-1,	-1,	-1,	-1,	-1,	59,	-1,	-1,	-1,	31,	58,	-1,	44,	-1|
7,	-1,	-1,	3,	21,	5,	-1,	24,	28,	-1,	-1,	-1,	29,	-1,	38,	-1,	23,	52,	-1,	-1,	-1,	-1,	42,	-1,	58,	-1,	-1,	43,	-1,	53,	-1,	48,	-1,	-1,	-1,	12,	-1,	-1,	-1,	-1,	45,	27,	36,	-1,	4,	-1,	13,	-1,	17,	46,	-1,	-1,	32,	49,	39,	-1,	-1,	-1,	1,	-1,	25,	-1,	40,	41|
39,	-1,	-1,	27,	-1,	51,	14,	-1,	-1,	-1,	-1,	-1,	-1,	11,	-1,	-1,	-1,	4,	-1,	-1,	31,	-1,	-1,	50,	13,	9,	-1,	62,	55,	10,	46,	-1,	63,	38,	-1,	-1,	-1,	-1,	-1,	-1,	-1,	-1,	22,	58,	40,	-1,	-1,	-1,	-1,	-1,	-1,	42,	21,	45,	-1,	36,	-1,	-1,	-1,	-1,	-1,	-1,	53,	60|
50,	34,	-1,	64,	25,	-1,	-1,	49,	13,	-1,	-1,	-1,	17,	-1,	5,	-1,	60,	58,	-1,	16,	18,	44,	57,	-1,	-1,	19,	-1,	-1,	21,	54,	29,	41,	-1,	-1,	-1,	-1,	-1,	3,	-1,	2,	-1,	9,	-1,	-1,	-1,	52,	-1,	-1,	55,	-1,	1,	37,	-1,	26,	-1,	53,	-1,	-1,	45,	-1,	-1,	-1,	7,	-1|
-1,	4,	-1,	60,	-1,	-1,	38,	-1,	49,	-1,	16,	-1,	36,	-1,	-1,	-1,	-1,	-1,	51,	-1,	-1,	21,	-1,	25,	-1,	-1,	33,	42,	63,	-1,	-1,	-1,	14,	-1,	59,	-1,	-1,	54,	-1,	18,	-1,	5,	53,	8,	-1,	19,	3,	17,	-1,	-1,	-1,	24,	44,	-1,	-1,	50,	-1,	-1,	52,	37,	43,	-1,	56,	30|
-1,	-1,	49,	-1,	17,	-1,	-1,	-1,	63,	-1,	-1,	-1,	-1,	20,	-1,	13,	59,	12,	-1,	-1,	-1,	26,	21,	-1,	-1,	-1,	-1,	-1,	48,	-1,	-1,	-1,	-1,	-1,	38,	-1,	-1,	-1,	-1,	-1,	-1,	-1,	-1,	5,	-1,	18,	58,	-1,	40,	34,	-1,	-1,	19,	-1,	2,	-1,	-1,	-1,	-1,	43,	44,	32,	41,	-1|
43,	-1,	-1,	40,	16,	26,	9,	8,	-1,	-1,	-1,	-1,	-1,	-1,	-1,	52,	-1,	-1,	61,	50,	-1,	-1,	3,	29,	-1,	56,	-1,	-1,	-1,	-1,	-1,	-1,	-1,	-1,	-1,	-1,	-1,	-1,	-1,	17,	14,	-1,	51,	45,	-1,	-1,	-1,	-1,	-1,	-1,	38,	-1,	-1,	4,	48,	28,	5,	-1,	34,	2,	62,	-1,	-1,	-1|
37,	-1,	20,	41,	-1,	-1,	-1,	-1,	-1,	1,	-1,	55,	-1,	5,	21,	9,	45,	-1,	-1,	10,	-1,	-1,	-1,	-1,	53,	17,	-1,	32,	39,	-1,	51,	-1,	58,	40,	49,	-1,	-1,	-1,	-1,	43,	-1,	-1,	4,	-1,	-1,	15,	-1,	60,	-1,	52,	-1,	-1,	61,	16,	-1,	-1,	38,	18,	-1,	-1,	-1,	-1,	11,	26|
46,	-1,	-1,	6,	-1,	-1,	-1,	-1,	-1,	-1,	51,	-1,	-1,	-1,	17,	-1,	-1,	-1,	-1,	43,	-1,	-1,	-1,	53,	-1,	61,	-1,	-1,	-1,	-1,	-1,	-1,	-1,	26,	21,	35,	-1,	39,	-1,	36,	13,	-1,	-1,	48,	12,	-1,	-1,	-1,	60,	-1,	5,	-1,	-1,	-1,	-1,	-1,	-1,	-1,	30,	28,	55,	-1,	52,	9|
52,	-1,	-1,	-1,	38,	-1,	-1,	53,	2,	54,	64,	-1,	-1,	-1,	56,	-1,	-1,	42,	-1,	-1,	-1,	-1,	-1,	-1,	-1,	59,	-1,	63,	45,	58,	-1,	-1,	-1,	-1,	-1,	-1,	55,	-1,	-1,	-1,	7,	10,	-1,	-1,	-1,	31,	62,	57,	-1,	-1,	-1,	-1,	-1,	-1,	-1,	-1,	-1,	21,	-1,	12,	40,	22,	-1,	-1|
-1,	-1,	-1,	31,	-1,	-1,	-1,	5,	-1,	-1,	-1,	-1,	-1,	-1,	-1,	62,	-1,	41,	-1,	-1,	17,	-1,	63,	32,	16,	-1,	-1,	21,	-1,	47,	-1,	-1,	-1,	-1,	-1,	-1,	-1,	44,	-1,	64,	26,	52,	-1,	-1,	-1,	22,	30,	-1,	39,	8,	53,	-1,	-1,	23,	-1,	43,	-1,	36,	-1,	-1,	4,	20,	45,	-1|
12,	59,	-1,	-1,	-1,	-1,	18,	-1,	32,	-1,	49,	-1,	-1,	38,	41,	28,	-1,	-1,	-1,	-1,	2,	-1,	-1,	22,	5,	20,	-1,	24,	43,	33,	26,	9,	-1,	-1,	47,	62,	16,	-1,	4,	-1,	-1,	40,	54,	-1,	3,	-1,	61,	-1,	10,	-1,	-1,	58,	-1,	-1,	-1,	-1,	-1,	17,	-1,	-1,	-1,	-1,	-1,	-1|
-1,	63,	-1,	-1,	-1,	47,	-1,	13,	46,	26,	4,	-1,	-1,	40,	-1,	-1,	-1,	23,	16,	48,	14,	-1,	-1,	38,	12,	28,	-1,	-1,	7,	-1,	-1,	30,	-1,	19,	-1,	-1,	-1,	10,	5,	-1,	-1,	-1,	29,	-1,	-1,	-1,	-1,	-1,	-1,	24,	-1,	-1,	-1,	20,	59,	56,	54,	-1,	-1,	50,	33,	57,	-1,	-1|
-1,	-1,	-1,	-1,	-1,	53,	58,	29,	8,	13,	-1,	-1,	-1,	-1,	-1,	-1,	3,	19,	-1,	55,	-1,	50,	-1,	21,	-1,	30,	34,	60,	-1,	20,	62,	-1,	-1,	-1,	36,	-1,	12,	-1,	-1,	39,	-1,	44,	-1,	2,	24,	-1,	-1,	61,	-1,	5,	25,	-1,	-1,	43,	7,	-1,	-1,	32,	-1,	52,	-1,	-1,	49,	-1|
-1,	-1,	55,	8,	33,	62,	32,	-1,	-1,	22,	-1,	-1,	-1,	7,	-1,	-1,	48,	-1,	-1,	25,	-1,	14,	-1,	40,	6,	-1,	37,	13,	-1,	-1,	-1,	24,	-1,	-1,	2,	-1,	-1,	46,	27,	42,	-1,	49,	-1,	-1,	-1,	26,	-1,	-1,	-1,	-1,	60,	-1,	-1,	-1,	-1,	30,	1,	-1,	-1,	9,	28,	56,	-1,	-1|
-1,	-1,	6,	-1,	-1,	-1,	-1,	-1,	-1,	62,	48,	-1,	30,	-1,	9,	-1,	2,	51,	4,	-1,	-1,	-1,	12,	5,	-1,	44,	35,	-1,	-1,	-1,	52,	-1,	28,	-1,	-1,	14,	-1,	58,	10,	53,	-1,	55,	40,	56,	-1,	-1,	-1,	-1,	16,	-1,	-1,	-1,	-1,	-1,	47,	13,	-1,	-1,	8,	-1,	-1,	33,	-1,	-1|
42,	-1,	-1,	-1,	-1,	57,	15,	56,	-1,	-1,	35,	-1,	-1,	41,	-1,	11,	-1,	-1,	-1,	47,	46,	-1,	-1,	18,	3,	39,	63,	-1,	-1,	1,	-1,	-1,	51,	54,	-1,	60,	-1,	-1,	64,	-1,	22,	59,	30,	12,	52,	-1,	-1,	-1,	-1,	55,	14,	-1,	58,	31,	-1,	-1,	-1,	-1,	-1,	16,	2,	-1,	37,	-1|
49,	30,	-1,	-1,	51,	44,	-1,	-1,	-1,	27,	53,	-1,	21,	55,	31,	20,	-1,	45,	-1,	22,	-1,	-1,	-1,	-1,	-1,	32,	41,	17,	-1,	-1,	-1,	28,	-1,	-1,	-1,	56,	-1,	35,	-1,	-1,	1,	60,	-1,	4,	64,	-1,	36,	-1,	57,	-1,	-1,	-1,	-1,	18,	-1,	3,	-1,	34,	62,	-1,	-1,	46,	-1,	12|
-1,	-1,	7,	-1,	-1,	12,	-1,	-1,	44,	14,	60,	-1,	-1,	16,	39,	2,	30,	-1,	-1,	-1,	23,	-1,	64,	-1,	33,	-1,	-1,	11,	-1,	-1,	-1,	-1,	24,	-1,	-1,	-1,	-1,	22,	-1,	-1,	-1,	-1,	-1,	-1,	-1,	-1,	-1,	-1,	54,	-1,	26,	-1,	4,	35,	-1,	20,	50,	55,	-1,	-1,	42,	-1,	-1,	-1|
-1,	-1,	-1,	20,	48,	-1,	2,	-1,	54,	-1,	10,	-1,	52,	-1,	12,	17,	-1,	24,	35,	-1,	-1,	-1,	-1,	60,	-1,	-1,	-1,	-1,	-1,	55,	64,	18,	-1,	-1,	3,	-1,	57,	37,	-1,	-1,	38,	50,	-1,	6,	51,	14,	-1,	-1,	11,	-1,	-1,	53,	-1,	-1,	8,	62,	30,	-1,	36,	5,	-1,	19,	21,	-1|
-1,	-1,	-1,	52,	19,	17,	-1,	-1,	-1,	18,	-1,	-1,	-1,	-1,	-1,	-1,	-1,	-1,	-1,	-1,	49,	-1,	-1,	16,	-1,	-1,	-1,	5,	12,	50,	58,	7,	-1,	15,	-1,	30,	13,	55,	-1,	-1,	8,	-1,	-1,	11,	-1,	42,	-1,	28,	-1,	2,	-1,	-1,	1,	-1,	9,	21,	14,	-1,	-1,	-1,	20,	4,	-1,	25|
-1,	-1,	-1,	28,	-1,	-1,	-1,	36,	-1,	-1,	-1,	-1,	-1,	46,	-1,	-1,	-1,	-1,	-1,	-1,	37,	-1,	-1,	55,	-1,	29,	-1,	38,	-1,	-1,	-1,	13,	-1,	-1,	-1,	-1,	27,	-1,	-1,	-1,	-1,	56,	-1,	-1,	50,	-1,	-1,	19,	61,	10,	43,	45,	-1,	24,	-1,	-1,	-1,	-1,	-1,	49,	-1,	-1,	63,	33|
-1,	-1,	-1,	18,	59,	35,	-1,	30,	62,	29,	52,	-1,	-1,	-1,	32,	-1,	20,	9,	8,	-1,	27,	-1,	-1,	1,	21,	3,	-1,	7,	58,	-1,	-1,	-1,	-1,	-1,	22,	-1,	56,	26,	-1,	44,	-1,	34,	-1,	24,	45,	-1,	42,	-1,	47,	-1,	-1,	-1,	-1,	-1,	-1,	-1,	17,	-1,	-1,	-1,	-1,	28,	-1,	19|
20,	25,	12,	-1,	-1,	43,	16,	39,	45,	33,	23,	30,	-1,	13,	-1,	-1,	-1,	-1,	22,	-1,	-1,	4,	54,	-1,	2,	46,	-1,	-1,	8,	-1,	-1,	-1,	-1,	62,	5,	-1,	40,	29,	-1,	24,	27,	-1,	6,	-1,	38,	37,	28,	-1,	-1,	49,	-1,	3,	48,	-1,	-1,	1,	-1,	-1,	-1,	-1,	-1,	41,	-1,	-1|
44,	-1,	-1,	46,	-1,	-1,	41,	6,	-1,	4,	1,	-1,	-1,	-1,	47,	26,	-1,	7,	28,	-1,	-1,	2,	-1,	15,	-1,	-1,	64,	23,	5,	37,	33,	-1,	-1,	-1,	-1,	-1,	-1,	43,	50,	51,	52,	-1,	-1,	9,	-1,	17,	-1,	-1,	-1,	19,	-1,	-1,	-1,	-1,	-1,	-1,	-1,	-1,	25,	-1,	-1,	45,	27,	38|
29,	52,	-1,	7,	34,	-1,	64,	-1,	-1,	39,	-1,	6,	-1,	17,	16,	-1,	-1,	46,	18,	14,	58,	-1,	-1,	-1,	-1,	-1,	-1,	-1,	-1,	-1,	49,	-1,	54,	36,	55,	-1,	-1,	-1,	-1,	-1,	-1,	47,	-1,	3,	-1,	-1,	-1,	-1,	42,	38,	-1,	-1,	-1,	-1,	15,	-1,	21,	-1,	23,	10,	-1,	13,	-1,	-1|
-1,	1,	54,	-1,	56,	-1,	17,	50,	-1,	36,	42,	-1,	11,	-1,	-1,	-1,	-1,	-1,	6,	-1,	44,	-1,	-1,	45,	-1,	12,	47,	-1,	-1,	30,	43,	-1,	23,	53,	64,	-1,	-1,	7,	-1,	-1,	41,	61,	-1,	13,	-1,	35,	-1,	-1,	-1,	-1,	4,	25,	57,	21,	27,	33,	39,	29,	5,	-1,	-1,	26,	-1,	34|
4,	-1,	38,	-1,	-1,	42,	62,	-1,	-1,	-1,	-1,	-1,	-1,	-1,	28,	-1,	-1,	-1,	59,	-1,	-1,	-1,	-1,	39,	-1,	-1,	54,	-1,	26,	35,	-1,	-1,	-1,	58,	63,	33,	52,	-1,	14,	-1,	20,	-1,	23,	-1,	-1,	53,	-1,	-1,	-1,	-1,	-1,	-1,	-1,	-1,	16,	-1,	-1,	-1,	32,	-1,	8,	47,	-1,	-1|
-1,	-1,	-1,	-1,	13,	-1,	-1,	-1,	-1,	20,	-1,	2,	-1,	48,	53,	-1,	-1,	-1,	47,	5,	-1,	33,	-1,	-1,	28,	-1,	52,	-1,	-1,	-1,	-1,	-1,	-1,	-1,	18,	-1,	38,	-1,	-1,	-1,	-1,	-1,	-1,	-1,	32,	-1,	-1,	-1,	6,	-1,	8,	-1,	-1,	-1,	-1,	55,	-1,	46,	15,	-1,	-1,	-1,	-1,	-1|];
