benchmarks_LEQ/INST_64x64/40/inst64x64_40_55.txt
8
1
63	-1	34	-1	-1	37	46	3	-1	40	-1	4	-1	58	13	-1	12	-1	14	31	-1	8	-1	33	-1	2	-1	-1	-1	49	-1	-1	61	-1	-1	38	-1	56	55	-1	-1	54	-1	-1	11	-1	-1	-1	-1	-1	45	6	-1	-1	28	10	-1	35	16	60	-1	21	-1	-1
-1	-1	-1	56	22	-1	-1	-1	26	46	-1	-1	9	-1	-1	-1	-1	54	3	-1	-1	-1	58	-1	59	-1	-1	-1	61	-1	-1	-1	21	2	-1	-1	-1	19	-1	-1	18	8	-1	-1	57	5	-1	-1	-1	50	11	41	30	-1	-1	-1	53	-1	-1	-1	13	-1	15	-1
-1	-1	-1	53	-1	-1	-1	-1	3	-1	-1	16	-1	-1	-1	-1	-1	-1	20	-1	62	-1	-1	59	37	-1	4	-1	56	13	-1	-1	31	-1	-1	45	26	-1	-1	-1	-1	-1	-1	-1	-1	30	-1	-1	44	-1	-1	14	-1	60	46	48	22	7	27	-1	-1	-1	34	-1
-1	-1	-1	-1	-1	23	-1	-1	-1	-1	-1	-1	-1	60	-1	14	43	48	41	-1	-1	13	-1	61	63	26	46	-1	15	-1	9	50	5	-1	54	-1	37	-1	-1	-1	-1	-1	-1	-1	36	-1	22	-1	-1	25	51	47	-1	-1	-1	-1	-1	19	-1	-1	-1	-1	-1	1
47	40	27	49	-1	-1	61	-1	-1	-1	-1	-1	-1	1	62	-1	63	-1	-1	44	-1	-1	-1	51	-1	22	-1	-1	38	-1	-1	-1	64	30	24	-1	-1	-1	-1	-1	-1	-1	39	-1	55	7	-1	-1	29	-1	-1	57	-1	-1	-1	58	12	-1	-1	36	-1	18	43	59
-1	-1	-1	14	-1	-1	-1	-1	-1	-1	-1	41	-1	42	34	-1	29	-1	49	30	25	-1	-1	-1	-1	21	-1	3	-1	-1	8	20	-1	-1	-1	-1	44	-1	-1	12	2	-1	-1	-1	-1	10	-1	-1	19	-1	31	-1	54	-1	1	-1	-1	52	-1	46	-1	-1	64	45
51	33	43	-1	-1	-1	19	-1	-1	-1	24	45	-1	54	-1	-1	-1	5	-1	-1	-1	-1	-1	17	-1	-1	-1	57	-1	-1	11	55	3	-1	10	-1	-1	34	-1	-1	-1	23	-1	-1	-1	-1	-1	40	-1	36	16	-1	13	-1	-1	-1	-1	56	-1	-1	26	-1	-1	-1
-1	-1	-1	-1	30	13	-1	-1	22	-1	-1	53	-1	49	64	-1	39	-1	-1	24	-1	-1	-1	-1	-1	-1	58	18	52	7	60	31	33	-1	-1	-1	36	59	51	-1	-1	35	17	20	-1	-1	-1	-1	-1	37	-1	-1	-1	-1	-1	40	-1	-1	61	62	-1	-1	28	-1
-1	32	25	-1	42	20	-1	-1	39	-1	-1	-1	-1	-1	35	-1	-1	43	55	60	-1	-1	-1	-1	-1	33	-1	-1	-1	62	-1	-1	50	46	-1	11	61	-1	-1	-1	-1	-1	52	-1	15	64	-1	-1	-1	-1	-1	-1	-1	-1	-1	-1	37	27	-1	1	-1	-1	-1	-1
-1	39	-1	-1	45	61	-1	58	-1	41	38	56	-1	59	-1	53	-1	-1	-1	-1	16	-1	9	26	11	-1	-1	-1	49	-1	-1	-1	35	-1	-1	-1	-1	-1	30	-1	6	62	-1	18	22	20	57	-1	-1	-1	-1	48	46	-1	-1	-1	-1	-1	-1	33	-1	-1	31	55
55	-1	-1	36	-1	1	11	-1	15	-1	-1	-1	-1	-1	18	40	-1	22	-1	53	59	-1	45	-1	-1	51	-1	-1	-1	-1	-1	5	-1	64	-1	-1	25	-1	-1	49	-1	-1	-1	-1	-1	54	-1	56	27	-1	-1	38	-1	30	17	-1	43	8	-1	4	41	60	-1	-1
-1	-1	26	15	-1	-1	47	-1	-1	9	-1	51	24	-1	8	23	36	-1	-1	20	-1	-1	-1	-1	27	-1	40	-1	-1	18	22	-1	39	45	-1	-1	3	-1	34	37	-1	14	55	-1	17	-1	-1	38	4	-1	63	-1	-1	-1	-1	-1	44	-1	11	30	10	54	-1	-1
-1	-1	-1	-1	41	-1	27	-1	-1	-1	-1	10	-1	-1	33	3	24	50	1	-1	-1	49	-1	-1	30	-1	-1	54	64	12	55	38	-1	59	-1	36	-1	-1	31	32	-1	7	-1	-1	8	43	-1	-1	20	14	-1	-1	-1	58	19	-1	-1	40	-1	-1	39	2	-1	-1
-1	-1	3	-1	64	-1	-1	-1	-1	31	-1	-1	62	47	63	-1	-1	39	-1	-1	51	-1	30	23	24	-1	-1	25	19	-1	-1	10	55	-1	14	-1	-1	-1	-1	-1	5	-1	-1	59	-1	-1	40	-1	-1	44	22	-1	35	-1	-1	-1	-1	15	-1	53	-1	-1	-1	-1
-1	-1	51	62	6	10	-1	-1	55	-1	-1	11	22	-1	-1	-1	-1	21	-1	28	-1	32	-1	13	-1	-1	1	-1	-1	-1	50	-1	-1	-1	-1	47	-1	15	40	33	-1	-1	-1	-1	-1	-1	44	34	53	-1	36	-1	-1	-1	54	52	-1	-1	-1	-1	-1	-1	61	-1
-1	-1	-1	38	-1	52	7	59	-1	-1	20	-1	48	-1	50	54	27	-1	12	-1	6	-1	14	35	-1	37	56	-1	-1	-1	-1	16	22	-1	8	44	-1	-1	-1	57	11	-1	-1	-1	30	-1	60	26	-1	15	55	-1	18	33	-1	31	-1	-1	19	47	34	25	62	-1
-1	-1	52	63	-1	-1	-1	-1	9	-1	21	-1	-1	-1	-1	5	-1	44	40	17	54	10	-1	4	-1	58	-1	-1	-1	-1	-1	43	-1	11	-1	-1	-1	14	26	-1	34	19	-1	-1	-1	-1	24	42	-1	-1	7	-1	-1	48	-1	57	-1	-1	-1	-1	35	-1	-1	29
62	-1	-1	17	-1	22	28	-1	-1	-1	-1	13	-1	57	49	42	61	-1	31	-1	-1	-1	-1	-1	39	55	7	10	-1	-1	-1	-1	-1	-1	-1	-1	41	21	-1	-1	-1	-1	-1	-1	16	-1	-1	-1	-1	-1	46	-1	-1	6	18	-1	45	-1	-1	20	5	-1	-1	-1
57	-1	37	-1	18	-1	-1	42	-1	-1	19	-1	-1	-1	60	10	-1	-1	63	51	-1	-1	6	-1	52	5	53	-1	-1	-1	-1	-1	-1	1	-1	-1	-1	9	-1	-1	-1	-1	43	39	27	3	4	-1	-1	-1	34	-1	-1	-1	-1	16	-1	-1	2	44	-1	61	8	-1
35	-1	-1	-1	-1	41	36	31	14	-1	-1	-1	27	33	-1	34	21	8	5	-1	38	20	-1	-1	-1	-1	-1	44	3	-1	-1	47	42	-1	60	63	-1	-1	-1	19	-1	-1	-1	22	13	-1	17	-1	-1	-1	49	-1	43	50	-1	12	-1	-1	56	-1	-1	-1	-1	-1
54	3	-1	-1	-1	-1	-1	16	-1	-1	41	-1	-1	-1	43	-1	-1	-1	50	35	-1	48	-1	-1	64	34	-1	-1	28	-1	63	-1	32	27	-1	15	46	-1	45	-1	30	-1	-1	51	-1	58	-1	10	-1	42	19	-1	29	-1	61	-1	-1	4	-1	-1	53	37	-1	-1
26	10	13	-1	29	-1	-1	21	-1	-1	-1	-1	46	-1	1	36	-1	27	32	-1	-1	-1	16	-1	14	-1	19	-1	-1	51	35	-1	-1	3	6	8	-1	40	61	55	-1	-1	57	-1	-1	-1	23	-1	22	-1	-1	39	60	-1	5	-1	-1	42	-1	-1	-1	-1	-1	-1
-1	58	40	-1	-1	14	-1	-1	20	-1	-1	54	-1	-1	-1	-1	-1	-1	-1	-1	-1	-1	-1	3	-1	48	-1	61	50	60	-1	49	-1	-1	-1	-1	53	57	-1	35	-1	-1	2	-1	7	-1	-1	-1	-1	1	-1	-1	55	-1	-1	38	16	10	43	17	-1	-1	19	-1
45	-1	-1	32	-1	-1	25	-1	-1	-1	-1	62	47	-1	-1	-1	57	33	-1	-1	-1	-1	-1	-1	-1	24	-1	-1	-1	-1	-1	54	10	-1	51	4	20	-1	-1	-1	-1	-1	-1	-1	37	12	-1	64	21	-1	-1	-1	-1	52	31	17	60	26	-1	15	-1	27	-1	-1
17	50	19	-1	39	-1	-1	62	-1	-1	-1	47	1	-1	-1	-1	-1	25	52	-1	-1	42	40	-1	-1	54	-1	-1	-1	3	-1	12	-1	-1	-1	-1	30	-1	-1	28	-1	-1	-1	26	-1	-1	-1	58	31	20	-1	-1	53	56	-1	-1	-1	-1	63	-1	-1	36	-1	-1
1	14	18	-1	26	60	-1	57	35	49	-1	25	-1	53	54	-1	64	-1	-1	8	48	-1	23	37	-1	-1	-1	28	-1	-1	-1	-1	-1	5	61	52	-1	2	-1	-1	-1	-1	3	30	-1	45	-1	22	-1	-1	-1	-1	34	36	-1	-1	-1	51	39	56	-1	-1	47	-1
5	-1	16	-1	-1	-1	63	7	6	24	17	-1	-1	18	45	-1	-1	60	-1	-1	53	-1	-1	-1	-1	-1	-1	22	-1	57	-1	-1	11	51	-1	41	-1	23	-1	38	36	-1	-1	-1	49	47	15	-1	1	-1	35	30	-1	-1	26	-1	-1	-1	-1	-1	46	-1	32	-1
-1	-1	-1	-1	40	64	20	48	-1	11	34	-1	-1	37	-1	43	-1	-1	17	21	-1	-1	-1	-1	-1	49	31	-1	9	-1	-1	-1	-1	-1	-1	-1	-1	-1	1	-1	35	-1	-1	62	-1	-1	-1	25	-1	22	-1	-1	-1	-1	4	63	-1	50	-1	-1	-1	-1	-1	28
-1	-1	-1	59	35	-1	-1	-1	-1	-1	-1	38	-1	-1	-1	-1	49	-1	-1	-1	-1	-1	-1	7	19	63	36	50	60	-1	5	58	62	22	12	21	10	33	18	3	-1	-1	-1	-1	-1	51	-1	1	64	-1	-1	-1	-1	-1	-1	-1	52	-1	-1	-1	-1	-1	-1	-1
31	21	-1	4	54	15	-1	-1	-1	-1	-1	12	60	-1	-1	-1	-1	-1	-1	-1	39	-1	-1	-1	-1	18	26	-1	-1	11	59	-1	-1	56	-1	-1	-1	42	25	-1	23	-1	-1	43	-1	-1	20	-1	-1	-1	-1	-1	-1	-1	-1	5	34	37	-1	22	-1	-1	-1	44
38	-1	-1	-1	52	58	-1	-1	21	-1	5	26	-1	3	22	16	51	6	45	-1	50	-1	-1	-1	-1	53	-1	-1	-1	-1	-1	-1	-1	-1	-1	17	-1	36	-1	-1	-1	32	60	-1	28	-1	-1	-1	-1	-1	-1	-1	-1	-1	-1	7	15	30	-1	-1	-1	1	-1	35
-1	-1	-1	-1	46	-1	-1	-1	4	52	39	20	40	19	-1	-1	-1	-1	-1	36	-1	-1	27	-1	34	45	17	1	-1	-1	-1	-1	13	48	-1	-1	-1	-1	-1	54	10	-1	-1	42	-1	38	64	12	-1	-1	18	28	-1	-1	-1	-1	-1	-1	-1	-1	14	-1	5	7
-1	-1	-1	-1	-1	6	-1	20	-1	-1	-1	-1	44	23	-1	24	-1	-1	19	38	7	-1	56	2	15	-1	-1	-1	18	39	47	-1	57	-1	17	-1	62	50	48	26	-1	42	21	35	-1	-1	1	-1	-1	-1	10	60	-1	-1	52	41	-1	-1	-1	8	27	29	-1	36
33	-1	-1	-1	58	-1	29	-1	-1	10	3	-1	-1	-1	14	-1	-1	-1	48	61	-1	28	-1	43	-1	-1	51	-1	-1	-1	20	-1	-1	-1	-1	-1	45	32	-1	-1	-1	46	38	47	-1	-1	-1	39	56	-1	-1	-1	-1	54	-1	4	-1	5	-1	-1	-1	42	-1	-1
-1	-1	-1	48	-1	-1	-1	61	41	60	37	42	-1	-1	-1	21	46	55	-1	-1	-1	6	49	-1	32	-1	59	-1	-1	27	56	-1	40	-1	43	-1	7	1	-1	58	-1	-1	50	-1	-1	-1	-1	-1	-1	-1	-1	16	-1	19	38	8	28	-1	35	34	-1	51	18	-1
-1	-1	-1	57	47	36	54	-1	-1	-1	-1	-1	-1	12	-1	-1	-1	14	-1	-1	1	35	-1	27	-1	-1	-1	40	17	-1	24	3	34	10	-1	61	19	51	-1	13	-1	25	-1	23	-1	60	-1	-1	9	-1	20	2	-1	63	-1	-1	-1	-1	-1	-1	58	-1	-1	-1
-1	-1	63	-1	21	-1	-1	-1	-1	-1	-1	9	29	-1	38	-1	23	52	-1	59	-1	22	42	20	-1	-1	-1	-1	2	-1	44	48	56	-1	-1	12	8	-1	60	-1	45	-1	-1	-1	4	11	-1	-1	-1	46	-1	35	32	-1	-1	61	19	-1	1	26	25	-1	-1	-1
-1	35	-1	-1	44	-1	-1	12	48	19	25	-1	-1	11	-1	-1	33	-1	26	32	-1	-1	17	50	13	9	5	-1	-1	10	46	-1	-1	38	-1	-1	-1	-1	-1	30	-1	-1	22	-1	40	-1	-1	59	-1	43	-1	-1	-1	-1	-1	-1	49	20	57	54	-1	16	-1	60
50	-1	15	64	-1	-1	-1	49	-1	47	59	-1	-1	-1	-1	46	-1	-1	-1	-1	-1	-1	-1	36	-1	19	-1	-1	-1	54	29	-1	-1	-1	-1	-1	-1	3	-1	-1	-1	-1	-1	10	48	52	-1	-1	55	31	1	37	-1	-1	-1	53	33	-1	-1	-1	63	-1	7	-1
-1	-1	-1	60	-1	-1	38	-1	-1	45	-1	-1	36	-1	-1	-1	13	15	51	-1	-1	-1	-1	-1	7	-1	-1	-1	-1	-1	-1	-1	14	-1	59	-1	-1	54	22	-1	-1	5	53	8	-1	19	-1	-1	48	28	47	-1	44	-1	-1	50	23	-1	52	-1	43	-1	56	30
-1	-1	-1	-1	17	-1	39	14	63	3	6	-1	10	-1	61	13	-1	12	30	-1	-1	-1	-1	28	-1	-1	-1	46	48	-1	1	-1	-1	23	-1	-1	-1	-1	57	52	-1	-1	24	-1	-1	-1	-1	9	-1	-1	-1	50	-1	-1	-1	-1	7	-1	31	-1	44	32	-1	-1
43	15	-1	-1	16	-1	9	8	60	-1	30	-1	-1	-1	44	-1	54	-1	61	-1	-1	-1	3	-1	-1	56	-1	-1	10	-1	-1	-1	18	-1	-1	24	-1	31	-1	17	14	-1	-1	45	-1	49	-1	-1	41	47	-1	32	-1	-1	-1	-1	-1	53	34	-1	-1	-1	-1	-1
-1	-1	-1	41	-1	-1	-1	44	-1	-1	-1	-1	14	-1	21	9	-1	-1	-1	-1	33	-1	-1	-1	-1	-1	3	-1	-1	-1	51	-1	58	-1	-1	50	2	-1	-1	-1	56	63	-1	-1	-1	15	6	60	30	52	13	36	-1	-1	-1	-1	-1	-1	-1	59	-1	24	-1	-1
46	19	50	6	24	32	-1	-1	-1	-1	-1	57	18	8	-1	-1	58	-1	-1	-1	-1	56	4	-1	-1	-1	-1	-1	-1	15	-1	-1	-1	26	21	35	42	39	-1	36	-1	37	20	48	12	-1	-1	-1	-1	-1	-1	-1	-1	-1	14	-1	64	-1	30	-1	-1	-1	-1	-1
52	-1	30	51	-1	27	-1	53	2	-1	64	23	-1	-1	56	25	-1	-1	39	46	-1	-1	-1	9	-1	59	49	-1	45	58	-1	-1	-1	-1	-1	28	-1	-1	-1	20	7	10	19	-1	-1	-1	62	57	37	-1	-1	1	-1	-1	-1	26	8	21	-1	-1	40	22	16	14
-1	-1	-1	-1	55	-1	-1	5	-1	-1	-1	-1	-1	50	24	62	37	-1	-1	-1	-1	-1	-1	32	-1	-1	2	21	40	-1	13	19	-1	-1	1	25	9	-1	-1	64	-1	-1	-1	38	-1	-1	30	35	39	8	53	12	-1	-1	57	43	10	-1	46	-1	-1	20	-1	-1
12	59	-1	23	-1	-1	-1	-1	-1	53	49	-1	-1	-1	-1	28	-1	-1	13	-1	-1	52	-1	22	-1	-1	-1	24	43	-1	-1	9	8	14	-1	62	-1	-1	-1	29	25	-1	54	-1	-1	-1	-1	-1	-1	-1	-1	58	42	51	55	46	35	-1	6	-1	15	48	60	37
2	-1	-1	-1	-1	-1	-1	-1	-1	26	-1	-1	43	-1	-1	-1	-1	-1	16	-1	-1	-1	-1	-1	-1	-1	60	64	7	52	18	-1	-1	19	-1	3	-1	10	-1	-1	-1	-1	29	-1	39	32	-1	-1	-1	-1	-1	-1	-1	-1	-1	56	-1	-1	58	-1	33	-1	25	49
16	-1	59	-1	14	-1	58	-1	8	13	-1	-1	51	-1	-1	6	3	-1	-1	-1	10	-1	33	21	-1	30	-1	-1	57	-1	-1	-1	-1	-1	-1	31	-1	4	38	-1	37	-1	-1	-1	24	-1	-1	-1	-1	-1	-1	-1	63	43	7	-1	-1	-1	48	-1	22	35	-1	-1
-1	-1	-1	-1	-1	62	32	63	64	-1	-1	-1	4	7	-1	29	-1	-1	53	25	41	-1	-1	40	6	-1	-1	-1	-1	-1	21	24	-1	52	-1	-1	-1	-1	-1	-1	-1	-1	-1	-1	-1	26	39	-1	-1	12	60	-1	-1	-1	51	-1	-1	58	47	-1	-1	56	10	-1
64	-1	-1	50	23	-1	-1	-1	61	-1	48	-1	-1	34	-1	38	2	-1	-1	42	-1	-1	-1	-1	-1	44	35	26	-1	-1	52	-1	28	63	-1	-1	-1	-1	10	-1	-1	55	40	-1	19	46	-1	-1	-1	-1	-1	-1	-1	-1	-1	13	-1	60	-1	11	7	-1	-1	-1
-1	-1	4	-1	-1	-1	-1	-1	23	-1	35	-1	25	-1	40	-1	-1	17	36	47	46	-1	7	-1	3	-1	63	-1	-1	-1	-1	8	51	-1	45	-1	-1	20	-1	-1	-1	59	-1	12	-1	29	10	32	33	-1	14	61	58	-1	-1	6	-1	-1	-1	-1	-1	38	-1	-1
49	-1	-1	54	-1	-1	-1	-1	-1	27	53	-1	21	55	-1	-1	-1	-1	-1	22	-1	-1	-1	-1	9	32	41	-1	-1	-1	2	28	-1	7	-1	56	33	-1	11	-1	-1	-1	-1	-1	-1	-1	-1	-1	-1	48	42	-1	-1	-1	24	-1	-1	-1	-1	63	-1	-1	26	12
-1	-1	-1	-1	-1	12	-1	45	-1	-1	60	-1	15	16	-1	-1	30	-1	-1	-1	-1	-1	-1	62	-1	38	-1	11	-1	-1	-1	61	24	-1	-1	19	-1	-1	41	-1	57	43	5	-1	-1	-1	-1	-1	-1	17	-1	-1	4	35	-1	-1	-1	55	53	-1	-1	-1	51	-1
-1	26	-1	20	48	-1	-1	-1	54	-1	-1	63	-1	-1	-1	-1	-1	-1	-1	-1	-1	-1	44	60	-1	43	-1	15	-1	-1	-1	-1	-1	61	-1	9	-1	37	-1	1	-1	50	-1	-1	-1	-1	33	7	-1	-1	40	53	-1	22	8	-1	30	-1	-1	5	45	-1	21	-1
60	41	-1	-1	19	17	-1	38	59	18	-1	-1	45	-1	-1	-1	-1	-1	27	-1	-1	57	-1	-1	-1	36	10	-1	-1	-1	-1	-1	-1	-1	-1	30	13	-1	-1	-1	-1	-1	-1	11	-1	-1	-1	-1	46	-1	-1	23	-1	44	-1	-1	-1	-1	-1	-1	-1	4	-1	25
58	-1	-1	28	2	-1	-1	36	-1	-1	9	-1	-1	-1	7	-1	62	-1	-1	23	-1	-1	48	55	-1	-1	-1	-1	-1	-1	53	-1	-1	-1	-1	32	27	25	-1	15	4	-1	18	-1	-1	57	-1	-1	61	-1	-1	-1	-1	-1	-1	14	20	-1	-1	49	6	52	63	-1
15	-1	10	-1	59	-1	-1	30	-1	29	-1	-1	38	25	-1	-1	20	-1	8	49	-1	36	-1	1	-1	-1	50	7	58	-1	-1	63	-1	-1	22	-1	-1	-1	-1	-1	39	34	-1	24	-1	33	-1	-1	-1	23	-1	-1	51	11	13	-1	17	43	4	-1	16	-1	-1	-1
-1	25	12	-1	-1	43	16	39	-1	-1	23	30	-1	13	-1	55	-1	-1	22	-1	21	-1	54	-1	2	46	61	9	8	-1	10	36	-1	-1	-1	42	40	29	17	24	-1	-1	-1	-1	-1	37	28	14	-1	49	52	-1	-1	32	-1	-1	18	44	-1	-1	64	-1	-1	58
-1	-1	-1	46	-1	-1	41	6	31	-1	1	-1	54	-1	47	26	-1	-1	-1	57	-1	-1	-1	-1	-1	-1	-1	23	-1	37	33	32	30	-1	-1	10	49	-1	50	51	-1	22	-1	-1	-1	17	55	8	18	-1	-1	34	20	53	-1	-1	-1	11	25	-1	-1	-1	27	-1
-1	52	-1	-1	34	63	-1	-1	-1	39	-1	-1	-1	17	16	-1	-1	46	18	-1	58	-1	-1	24	-1	-1	27	-1	-1	19	-1	-1	54	-1	-1	-1	4	-1	-1	-1	40	-1	-1	-1	-1	-1	-1	-1	-1	-1	-1	-1	31	-1	15	-1	-1	48	23	-1	-1	13	-1	53
-1	1	-1	-1	-1	-1	-1	-1	-1	36	-1	-1	-1	-1	-1	-1	38	-1	6	-1	-1	-1	-1	45	-1	-1	-1	55	-1	30	-1	-1	-1	53	-1	-1	-1	7	28	59	-1	-1	-1	-1	-1	-1	46	49	-1	-1	-1	-1	-1	-1	27	-1	-1	-1	5	40	-1	-1	-1	-1
-1	37	-1	-1	-1	-1	-1	-1	-1	-1	-1	-1	-1	-1	-1	-1	-1	13	-1	-1	61	25	41	-1	-1	-1	-1	34	-1	-1	57	-1	-1	-1	-1	33	-1	6	14	-1	20	-1	-1	-1	10	-1	-1	43	36	29	56	-1	-1	46	-1	-1	-1	1	-1	-1	8	47	22	31
-1	-1	-1	22	13	-1	-1	23	-1	20	-1	-1	58	-1	53	-1	-1	-1	-1	5	35	-1	10	64	-1	42	-1	-1	-1	-1	45	-1	-1	-1	-1	16	-1	-1	37	9	12	-1	-1	-1	32	59	-1	-1	-1	-1	-1	54	26	39	50	-1	56	-1	-1	-1	-1	3	-1	-1
64 
52 30 59 56
10 20 55 7
18 13 5 53
62 51 25 20
56 28 42 57
14 55 64 49
14 62 1 54
5 10 21 43
52 22 61 3
20 52 5 59
31 55 25 43
60 21 12 5
34 64 13 11
29 43 28 49
63 32 38 39
30 53 44 10
22 37 47 58
52 24 40 40
60 50 55 62
62 36 5 5
57 44 60 14
54 38 42 14
3 13 8 22
6 30 62 29
32 31 49 51
59 4 49 14
23 5 10 43
36 41 3 14
30 3 61 1
22 51 63 42
48 52 22 26
39 41 3 8
5 12 47 30
24 40 40 45
5 37 15 26
23 33 3 5
31 4 61 9
50 53 21 47
56 51 28 46
2 30 34 17
7 47 51 54
36 35 48 4
52 2 25 55
47 17 28 30
30 50 20 11
20 25 42 35
31 29 35 34
42 55 54 40
61 31 31 2
27 53 34 13
61 28 57 2
28 53 18 35
29 45 36 13
63 27 46 2
24 41 38 29
15 61 32 43
64 2 14 26
40 55 38 44
33 1 44 33
10 50 14 12
7 54 17 46
51 10 26 11
26 41 7 57
16 58 63 14
